cases/pglib-opf/pglib_opf_case24_ieee_rts.m
ipopt
ACT
[info | PowerModels]: extending matpower format with data: areas 4x3
[info | PowerModels]: removing 1 cost terms from generator 1: [13000.0, 400.6849]
[info | PowerModels]: removing 1 cost terms from generator 29: [0.1, 0.001]
[info | PowerModels]: removing 1 cost terms from generator 2: [13000.0, 400.6849]
[info | PowerModels]: removing 1 cost terms from generator 6: [13000.0, 400.6849]
[info | PowerModels]: removing 1 cost terms from generator 25: [0.1, 0.001]
[info | PowerModels]: removing 1 cost terms from generator 5: [13000.0, 400.6849]
[info | PowerModels]: removing 3 cost terms from generator 15: Float64[]
[info | PowerModels]: removing 1 cost terms from generator 27: [0.1, 0.001]
[info | PowerModels]: removing 1 cost terms from generator 28: [0.1, 0.001]
[info | PowerModels]: removing 1 cost terms from generator 26: [0.1, 0.001]
[info | PowerModels]: removing 1 cost terms from generator 30: [0.1, 0.001]

******************************************************************************
This program contains Ipopt, a library for large-scale nonlinear optimization.
 Ipopt is released as open source code under the Eclipse Public License (EPL).
         For more information visit http://projects.coin-or.org/Ipopt
******************************************************************************

This is Ipopt version 3.13.2, running with linear solver mumps.
NOTE: Other linear solvers might be more efficient (see Ipopt documentation).

Number of nonzeros in equality constraint Jacobian...:     1099
Number of nonzeros in inequality constraint Jacobian.:      288
Number of nonzeros in Lagrangian Hessian.............:      480

Total number of variables............................:      333
                     variables with only lower bounds:        0
                variables with lower and upper bounds:      309
                     variables with only upper bounds:        0
Total number of equality constraints.................:      269
Total number of inequality constraints...............:      144
        inequality constraints with only lower bounds:       34
   inequality constraints with lower and upper bounds:        0
        inequality constraints with only upper bounds:      110

iter    objective    inf_pr   inf_du lg(mu)  ||d||  lg(rg) alpha_du alpha_pr  ls
   0  4.0097983e+04 2.52e+00 4.56e+01  -1.0 0.00e+00    -  0.00e+00 0.00e+00   0
   1  5.6180940e+04 1.56e+00 6.27e+01  -1.0 2.38e+00    -  1.00e-02 3.80e-01h  1
   2  5.3168989e+04 1.35e+00 5.42e+01  -1.0 6.43e+00    -  1.34e-02 1.39e-01f  1
   3  5.2204521e+04 1.33e+00 5.02e+01  -1.0 8.85e+00    -  3.45e-01 1.34e-02f  1
   4  5.3201810e+04 1.06e+00 3.73e+01  -1.0 7.57e+00    -  7.34e-01 2.04e-01h  1
   5  5.5195538e+04 3.86e-01 1.31e+01  -1.0 9.47e+00    -  9.75e-01 6.35e-01H  1
   6  5.4999200e+04 3.17e-01 1.19e+01  -1.0 1.03e+01    -  4.74e-01 1.79e-01f  1
   7  5.5406678e+04 2.72e-01 1.10e+01  -1.0 7.26e+00    -  1.00e+00 1.41e-01h  1
   8  5.6008044e+04 2.32e-01 7.31e+00  -1.0 3.00e+00    -  2.48e-01 1.47e-01h  1
   9  6.2287963e+04 3.19e-02 3.85e+00  -1.0 1.39e+00    -  6.94e-01 8.63e-01h  1
iter    objective    inf_pr   inf_du lg(mu)  ||d||  lg(rg) alpha_du alpha_pr  ls
  10  6.3843032e+04 3.31e-05 8.58e-01  -1.0 1.78e+00    -  7.57e-01 1.00e+00h  1
  11  6.3554083e+04 6.25e-05 7.81e-01  -1.7 1.68e-01    -  7.57e-01 1.00e+00f  1
  12  6.3499958e+04 8.59e-05 2.96e-01  -1.7 8.59e-02    -  1.00e+00 1.00e+00h  1
  13  6.3485982e+04 1.03e-05 6.54e-02  -1.7 3.35e-02    -  1.00e+00 1.00e+00h  1
  14  6.3376605e+04 1.25e-04 3.99e-01  -2.5 1.12e-01    -  8.27e-01 9.97e-01f  1
  15  6.3367178e+04 4.38e-05 5.60e-01  -2.5 1.02e-01    -  1.00e+00 7.15e-01h  1
  16  6.3368496e+04 5.47e-06 7.71e-03  -2.5 9.12e-02    -  1.00e+00 1.00e+00f  1
  17  6.3357243e+04 1.87e-06 3.22e-01  -3.8 1.54e-01    -  8.76e-01 6.73e-01h  1
  18  6.3352791e+04 1.15e-06 1.09e-03  -3.8 1.18e-01    -  1.00e+00 1.00e+00h  1
  19  6.3352436e+04 4.86e-07 2.51e-01  -5.7 4.93e-03    -  9.93e-01 5.98e-01h  1
iter    objective    inf_pr   inf_du lg(mu)  ||d||  lg(rg) alpha_du alpha_pr  ls
  20  6.3352210e+04 3.00e-08 3.48e-03  -5.7 2.30e-03    -  1.00e+00 9.93e-01f  1
  21  6.3352210e+04 1.60e-11 6.55e-08  -5.7 1.21e-04    -  1.00e+00 1.00e+00f  1
  22  6.3352201e+04 8.27e-12 1.10e-04  -8.6 1.08e-04    -  1.00e+00 9.94e-01h  1
  23  6.3352201e+04 2.31e-14 1.32e-12  -8.6 3.33e-07    -  1.00e+00 1.00e+00f  1

Number of Iterations....: 23

                                   (scaled)                 (unscaled)
Objective...............:   4.8732462391762090e+02    6.3352201109290712e+04
Dual infeasibility......:   1.3225607130251187e-12    1.7193289269326543e-10
Constraint violation....:   2.3127333381722792e-14    2.3127333381722792e-14
Complementarity.........:   2.5060609849173532e-09    3.2578792803925591e-07
Overall NLP error.......:   2.5060609849173532e-09    3.2578792803925591e-07


Number of objective function evaluations             = 25
Number of objective gradient evaluations             = 24
Number of equality constraint evaluations            = 25
Number of inequality constraint evaluations          = 25
Number of equality constraint Jacobian evaluations   = 24
Number of inequality constraint Jacobian evaluations = 24
Number of Lagrangian Hessian evaluations             = 23
Total CPU secs in IPOPT (w/o function evaluations)   =      1.326
Total CPU secs in NLP function evaluations           =      2.280

EXIT: Optimal Solution Found.
Time to Solution........:4.3287200927734375
